objective value:                                   32
B38(3)                                              1 	(obj:1)
B52(3)                                              1 	(obj:1)
B82(3)                                              1 	(obj:1)
B147(3)                                             1 	(obj:1)
B196(3)                                             1 	(obj:1)
B215(3)                                             1 	(obj:1)
B217(4)                                             1 	(obj:1)
B235(3)                                             1 	(obj:1)
B244(3)                                             1 	(obj:1)
B267(4)                                             1 	(obj:1)
B296(3)                                             1 	(obj:1)
B298(3)                                             1 	(obj:1)
B307(2)                                             1 	(obj:1)
B312(3)                                             1 	(obj:1)
B315(4)                                             1 	(obj:1)
B325(3)                                             1 	(obj:1)
B338(3)                                             1 	(obj:1)
B349(2)                                             1 	(obj:1)
B355(3)                                             1 	(obj:1)
B370(3)                                             1 	(obj:1)
B385(3)                                             1 	(obj:1)
B407(3)                                             1 	(obj:1)
B412(3)                                             1 	(obj:1)
B422(3)                                             1 	(obj:1)
B431(3)                                             1 	(obj:1)
B438(3)                                             1 	(obj:1)
B447(3)                                             1 	(obj:1)
B459(3)                                             1 	(obj:1)
B503(3)                                             1 	(obj:1)
B506(3)                                             1 	(obj:1)
B512(3)                                             1 	(obj:1)
B523(2)                                             1 	(obj:1)
